151
0 42 38 10 69 48 30 57 81 6 
20 34 17 16 9 124 24 23 40 105 
64 3 129 116 99 13 102 112 29 145 
43 79 39 106 123 50 84 85 2 92 
46 21 80 113 127 140 82 49 11 41 
56 135 33 7 87 107 110 59 8 138 
78 62 12 76 150 108 32 101 75 31 
100 141 143 125 1 104 68 147 91 109 
4 114 77 98 61 139 117 133 134 137 
74 22 45 122 54 71 126 132 89 96 
65 148 115 119 111 86 25 27 51 118 
37 144 142 128 60 131 88 26 55 67 
28 35 53 120 14 19 66 103 90 97 
15 70 83 94 47 130 36 18 136 73 
72 44 5 93 52 95 146 63 121 149 
58 
